// This code describes the spintronic reservoir simulation based on Mumax3 numerical tool. 
// The code can be directly run by the Mumax3 interface. 

//  Define the grid and mesh sizes of the magnetic thin film.
Nx := 350
Ny := 350
Nz := 10
setgridsize(Nx, Ny, Nz)

sizeX := 7e-6
sizeY := 7e-6
sizeZ := 100e-9
setcellsize(sizeX/Nx, sizeY/Ny, sizeZ/Nz)  

area := rect(sizeX, sizeY)

setgeom(area) 


// Parameter settings for high-damping materials
Msat  = 200e3    // saturation magnetization
Aex   = 4e-12  // exchange stiffness constant
Ku1   = 10e3    // uniaxial magnetic anisotropy
AnisU = vector(0,0,1) // anisotropic axis

// initializing spins to point toward x axis
B0 := 0.1
alpha = 10 // extreme large damping for fast relaxation process
MaxDt = 5e-11
m = uniform(1,0,0)
B_ext = vector(B0, 0, 0)
relax()

// Divide the film into 10 by 10 subregions, and define damping constant for each subregion
// These random configuration of damping distributions are generated by MATLAB (see Damping_generation.m)
// To change for a different control paramter configurations (i.e., damping factor average and spread), we change the parameters in Damping_generation.m and paste the generated text to replace the damping distribution settings below.

region_1:=rect(1/10*sizeX,1/10*sizeY).transl(-0.450000*sizeX,-0.450000*sizeY,0)
defregion(1,region_1)
alpha.setregion(1,0.141740)
region_2:=rect(1/10*sizeX,1/10*sizeY).transl(-0.350000*sizeX,-0.450000*sizeY,0)
defregion(2,region_2)
alpha.setregion(2,0.173943)
region_3:=rect(1/10*sizeX,1/10*sizeY).transl(-0.250000*sizeX,-0.450000*sizeY,0)
defregion(3,region_3)
alpha.setregion(3,0.164949)
region_4:=rect(1/10*sizeX,1/10*sizeY).transl(-0.150000*sizeX,-0.450000*sizeY,0)
defregion(4,region_4)
alpha.setregion(4,0.163381)
region_5:=rect(1/10*sizeX,1/10*sizeY).transl(-0.050000*sizeX,-0.450000*sizeY,0)
defregion(5,region_5)
alpha.setregion(5,0.177830)
region_6:=rect(1/10*sizeX,1/10*sizeY).transl(0.050000*sizeX,-0.450000*sizeY,0)
defregion(6,region_6)
alpha.setregion(6,0.147298)
region_7:=rect(1/10*sizeX,1/10*sizeY).transl(0.150000*sizeX,-0.450000*sizeY,0)
defregion(7,region_7)
alpha.setregion(7,0.175930)
region_8:=rect(1/10*sizeX,1/10*sizeY).transl(0.250000*sizeX,-0.450000*sizeY,0)
defregion(8,region_8)
alpha.setregion(8,0.150832)
region_9:=rect(1/10*sizeX,1/10*sizeY).transl(0.350000*sizeX,-0.450000*sizeY,0)
defregion(9,region_9)
alpha.setregion(9,0.151026)
region_10:=rect(1/10*sizeX,1/10*sizeY).transl(0.450000*sizeX,-0.450000*sizeY,0)
defregion(10,region_10)
alpha.setregion(10,0.135856)
region_11:=rect(1/10*sizeX,1/10*sizeY).transl(-0.450000*sizeX,-0.350000*sizeY,0)
defregion(11,region_11)
alpha.setregion(11,0.128157)
region_12:=rect(1/10*sizeX,1/10*sizeY).transl(-0.350000*sizeX,-0.350000*sizeY,0)
defregion(12,region_12)
alpha.setregion(12,0.130821)
region_13:=rect(1/10*sizeX,1/10*sizeY).transl(-0.250000*sizeX,-0.350000*sizeY,0)
defregion(13,region_13)
alpha.setregion(13,0.155130)
region_14:=rect(1/10*sizeX,1/10*sizeY).transl(-0.150000*sizeX,-0.350000*sizeY,0)
defregion(14,region_14)
alpha.setregion(14,0.180655)
region_15:=rect(1/10*sizeX,1/10*sizeY).transl(-0.050000*sizeX,-0.350000*sizeY,0)
defregion(15,region_15)
alpha.setregion(15,0.175183)
region_16:=rect(1/10*sizeX,1/10*sizeY).transl(0.050000*sizeX,-0.350000*sizeY,0)
defregion(16,region_16)
alpha.setregion(16,0.127772)
region_17:=rect(1/10*sizeX,1/10*sizeY).transl(0.150000*sizeX,-0.350000*sizeY,0)
defregion(17,region_17)
alpha.setregion(17,0.158846)
region_18:=rect(1/10*sizeX,1/10*sizeY).transl(0.250000*sizeX,-0.350000*sizeY,0)
defregion(18,region_18)
alpha.setregion(18,0.141261)
region_19:=rect(1/10*sizeX,1/10*sizeY).transl(0.350000*sizeX,-0.350000*sizeY,0)
defregion(19,region_19)
alpha.setregion(19,0.171658)
region_20:=rect(1/10*sizeX,1/10*sizeY).transl(0.450000*sizeX,-0.350000*sizeY,0)
defregion(20,region_20)
alpha.setregion(20,0.154419)
region_21:=rect(1/10*sizeX,1/10*sizeY).transl(-0.450000*sizeX,-0.250000*sizeY,0)
defregion(21,region_21)
alpha.setregion(21,0.153068)
region_22:=rect(1/10*sizeX,1/10*sizeY).transl(-0.350000*sizeX,-0.250000*sizeY,0)
defregion(22,region_22)
alpha.setregion(22,0.166005)
region_23:=rect(1/10*sizeX,1/10*sizeY).transl(-0.250000*sizeX,-0.250000*sizeY,0)
defregion(23,region_23)
alpha.setregion(23,0.137587)
region_24:=rect(1/10*sizeX,1/10*sizeY).transl(-0.150000*sizeX,-0.250000*sizeY,0)
defregion(24,region_24)
alpha.setregion(24,0.146079)
region_25:=rect(1/10*sizeX,1/10*sizeY).transl(-0.050000*sizeX,-0.250000*sizeY,0)
defregion(25,region_25)
alpha.setregion(25,0.170746)
region_26:=rect(1/10*sizeX,1/10*sizeY).transl(0.050000*sizeX,-0.250000*sizeY,0)
defregion(26,region_26)
alpha.setregion(26,0.158845)
region_27:=rect(1/10*sizeX,1/10*sizeY).transl(0.150000*sizeX,-0.250000*sizeY,0)
defregion(27,region_27)
alpha.setregion(27,0.151656)
region_28:=rect(1/10*sizeX,1/10*sizeY).transl(0.250000*sizeX,-0.250000*sizeY,0)
defregion(28,region_28)
alpha.setregion(28,0.177647)
region_29:=rect(1/10*sizeX,1/10*sizeY).transl(0.350000*sizeX,-0.250000*sizeY,0)
defregion(29,region_29)
alpha.setregion(29,0.167409)
region_30:=rect(1/10*sizeX,1/10*sizeY).transl(0.450000*sizeX,-0.250000*sizeY,0)
defregion(30,region_30)
alpha.setregion(30,0.168811)
region_31:=rect(1/10*sizeX,1/10*sizeY).transl(-0.450000*sizeX,-0.150000*sizeY,0)
defregion(31,region_31)
alpha.setregion(31,0.139699)
region_32:=rect(1/10*sizeX,1/10*sizeY).transl(-0.350000*sizeX,-0.150000*sizeY,0)
defregion(32,region_32)
alpha.setregion(32,0.158825)
region_33:=rect(1/10*sizeX,1/10*sizeY).transl(-0.250000*sizeX,-0.150000*sizeY,0)
defregion(33,region_33)
alpha.setregion(33,0.150430)
region_34:=rect(1/10*sizeX,1/10*sizeY).transl(-0.150000*sizeX,-0.150000*sizeY,0)
defregion(34,region_34)
alpha.setregion(34,0.168782)
region_35:=rect(1/10*sizeX,1/10*sizeY).transl(-0.050000*sizeX,-0.150000*sizeY,0)
defregion(35,region_35)
alpha.setregion(35,0.154247)
region_36:=rect(1/10*sizeX,1/10*sizeY).transl(0.050000*sizeX,-0.150000*sizeY,0)
defregion(36,region_36)
alpha.setregion(36,0.150664)
region_37:=rect(1/10*sizeX,1/10*sizeY).transl(0.150000*sizeX,-0.150000*sizeY,0)
defregion(37,region_37)
alpha.setregion(37,0.143350)
region_38:=rect(1/10*sizeX,1/10*sizeY).transl(0.250000*sizeX,-0.150000*sizeY,0)
defregion(38,region_38)
alpha.setregion(38,0.176769)
region_39:=rect(1/10*sizeX,1/10*sizeY).transl(0.350000*sizeX,-0.150000*sizeY,0)
defregion(39,region_39)
alpha.setregion(39,0.138745)
region_40:=rect(1/10*sizeX,1/10*sizeY).transl(0.450000*sizeX,-0.150000*sizeY,0)
defregion(40,region_40)
alpha.setregion(40,0.141505)
region_41:=rect(1/10*sizeX,1/10*sizeY).transl(-0.450000*sizeX,-0.050000*sizeY,0)
defregion(41,region_41)
alpha.setregion(41,0.166261)
region_42:=rect(1/10*sizeX,1/10*sizeY).transl(-0.350000*sizeX,-0.050000*sizeY,0)
defregion(42,region_42)
alpha.setregion(42,0.135218)
region_43:=rect(1/10*sizeX,1/10*sizeY).transl(-0.250000*sizeX,-0.050000*sizeY,0)
defregion(43,region_43)
alpha.setregion(43,0.134536)
region_44:=rect(1/10*sizeX,1/10*sizeY).transl(-0.150000*sizeX,-0.050000*sizeY,0)
defregion(44,region_44)
alpha.setregion(44,0.156726)
region_45:=rect(1/10*sizeX,1/10*sizeY).transl(-0.050000*sizeX,-0.050000*sizeY,0)
defregion(45,region_45)
alpha.setregion(45,0.137944)
region_46:=rect(1/10*sizeX,1/10*sizeY).transl(0.050000*sizeX,-0.050000*sizeY,0)
defregion(46,region_46)
alpha.setregion(46,0.175216)
region_47:=rect(1/10*sizeX,1/10*sizeY).transl(0.150000*sizeX,-0.050000*sizeY,0)
defregion(47,region_47)
alpha.setregion(47,0.155942)
region_48:=rect(1/10*sizeX,1/10*sizeY).transl(0.250000*sizeX,-0.050000*sizeY,0)
defregion(48,region_48)
alpha.setregion(48,0.160348)
region_49:=rect(1/10*sizeX,1/10*sizeY).transl(0.350000*sizeX,-0.050000*sizeY,0)
defregion(49,region_49)
alpha.setregion(49,0.166194)
region_50:=rect(1/10*sizeX,1/10*sizeY).transl(0.450000*sizeX,-0.050000*sizeY,0)
defregion(50,region_50)
alpha.setregion(50,0.180281)
region_51:=rect(1/10*sizeX,1/10*sizeY).transl(-0.450000*sizeX,0.050000*sizeY,0)
defregion(51,region_51)
alpha.setregion(51,0.162773)
region_52:=rect(1/10*sizeX,1/10*sizeY).transl(-0.350000*sizeX,0.050000*sizeY,0)
defregion(52,region_52)
alpha.setregion(52,0.172833)
region_53:=rect(1/10*sizeX,1/10*sizeY).transl(-0.250000*sizeX,0.050000*sizeY,0)
defregion(53,region_53)
alpha.setregion(53,0.149128)
region_54:=rect(1/10*sizeX,1/10*sizeY).transl(-0.150000*sizeX,0.050000*sizeY,0)
defregion(54,region_54)
alpha.setregion(54,0.175371)
region_55:=rect(1/10*sizeX,1/10*sizeY).transl(-0.050000*sizeX,0.050000*sizeY,0)
defregion(55,region_55)
alpha.setregion(55,0.150576)
region_56:=rect(1/10*sizeX,1/10*sizeY).transl(0.050000*sizeX,0.050000*sizeY,0)
defregion(56,region_56)
alpha.setregion(56,0.169276)
region_57:=rect(1/10*sizeX,1/10*sizeY).transl(0.150000*sizeX,0.050000*sizeY,0)
defregion(57,region_57)
alpha.setregion(57,0.135074)
region_58:=rect(1/10*sizeX,1/10*sizeY).transl(0.250000*sizeX,0.050000*sizeY,0)
defregion(58,region_58)
alpha.setregion(58,0.177824)
region_59:=rect(1/10*sizeX,1/10*sizeY).transl(0.350000*sizeX,0.050000*sizeY,0)
defregion(59,region_59)
alpha.setregion(59,0.158902)
region_60:=rect(1/10*sizeX,1/10*sizeY).transl(0.450000*sizeX,0.050000*sizeY,0)
defregion(60,region_60)
alpha.setregion(60,0.175739)
region_61:=rect(1/10*sizeX,1/10*sizeY).transl(-0.450000*sizeX,0.150000*sizeY,0)
defregion(61,region_61)
alpha.setregion(61,0.179726)
region_62:=rect(1/10*sizeX,1/10*sizeY).transl(-0.350000*sizeX,0.150000*sizeY,0)
defregion(62,region_62)
alpha.setregion(62,0.137041)
region_63:=rect(1/10*sizeX,1/10*sizeY).transl(-0.250000*sizeX,0.150000*sizeY,0)
defregion(63,region_63)
alpha.setregion(63,0.167633)
region_64:=rect(1/10*sizeX,1/10*sizeY).transl(-0.150000*sizeX,0.150000*sizeY,0)
defregion(64,region_64)
alpha.setregion(64,0.143481)
region_65:=rect(1/10*sizeX,1/10*sizeY).transl(-0.050000*sizeX,0.150000*sizeY,0)
defregion(65,region_65)
alpha.setregion(65,0.154962)
region_66:=rect(1/10*sizeX,1/10*sizeY).transl(0.050000*sizeX,0.150000*sizeY,0)
defregion(66,region_66)
alpha.setregion(66,0.174229)
region_67:=rect(1/10*sizeX,1/10*sizeY).transl(0.150000*sizeX,0.150000*sizeY,0)
defregion(67,region_67)
alpha.setregion(67,0.127327)
region_68:=rect(1/10*sizeX,1/10*sizeY).transl(0.250000*sizeX,0.150000*sizeY,0)
defregion(68,region_68)
alpha.setregion(68,0.143493)
region_69:=rect(1/10*sizeX,1/10*sizeY).transl(0.350000*sizeX,0.150000*sizeY,0)
defregion(69,region_69)
alpha.setregion(69,0.153412)
region_70:=rect(1/10*sizeX,1/10*sizeY).transl(0.450000*sizeX,0.150000*sizeY,0)
defregion(70,region_70)
alpha.setregion(70,0.164042)
region_71:=rect(1/10*sizeX,1/10*sizeY).transl(-0.450000*sizeX,0.250000*sizeY,0)
defregion(71,region_71)
alpha.setregion(71,0.155181)
region_72:=rect(1/10*sizeX,1/10*sizeY).transl(-0.350000*sizeX,0.250000*sizeY,0)
defregion(72,region_72)
alpha.setregion(72,0.145038)
region_73:=rect(1/10*sizeX,1/10*sizeY).transl(-0.250000*sizeX,0.250000*sizeY,0)
defregion(73,region_73)
alpha.setregion(73,0.147784)
region_74:=rect(1/10*sizeX,1/10*sizeY).transl(-0.150000*sizeX,0.250000*sizeY,0)
defregion(74,region_74)
alpha.setregion(74,0.134983)
region_75:=rect(1/10*sizeX,1/10*sizeY).transl(-0.050000*sizeX,0.250000*sizeY,0)
defregion(75,region_75)
alpha.setregion(75,0.139410)
region_76:=rect(1/10*sizeX,1/10*sizeY).transl(0.050000*sizeX,0.250000*sizeY,0)
defregion(76,region_76)
alpha.setregion(76,0.136595)
region_77:=rect(1/10*sizeX,1/10*sizeY).transl(0.150000*sizeX,0.250000*sizeY,0)
defregion(77,region_77)
alpha.setregion(77,0.154745)
region_78:=rect(1/10*sizeX,1/10*sizeY).transl(0.250000*sizeX,0.250000*sizeY,0)
defregion(78,region_78)
alpha.setregion(78,0.151520)
region_79:=rect(1/10*sizeX,1/10*sizeY).transl(0.350000*sizeX,0.250000*sizeY,0)
defregion(79,region_79)
alpha.setregion(79,0.147765)
region_80:=rect(1/10*sizeX,1/10*sizeY).transl(0.450000*sizeX,0.250000*sizeY,0)
defregion(80,region_80)
alpha.setregion(80,0.167508)
region_81:=rect(1/10*sizeX,1/10*sizeY).transl(-0.450000*sizeX,0.350000*sizeY,0)
defregion(81,region_81)
alpha.setregion(81,0.167163)
region_82:=rect(1/10*sizeX,1/10*sizeY).transl(-0.350000*sizeX,0.350000*sizeY,0)
defregion(82,region_82)
alpha.setregion(82,0.127667)
region_83:=rect(1/10*sizeX,1/10*sizeY).transl(-0.250000*sizeX,0.350000*sizeY,0)
defregion(83,region_83)
alpha.setregion(83,0.142489)
region_84:=rect(1/10*sizeX,1/10*sizeY).transl(-0.150000*sizeX,0.350000*sizeY,0)
defregion(84,region_84)
alpha.setregion(84,0.161645)
region_85:=rect(1/10*sizeX,1/10*sizeY).transl(-0.050000*sizeX,0.350000*sizeY,0)
defregion(85,region_85)
alpha.setregion(85,0.137310)
region_86:=rect(1/10*sizeX,1/10*sizeY).transl(0.050000*sizeX,0.350000*sizeY,0)
defregion(86,region_86)
alpha.setregion(86,0.140965)
region_87:=rect(1/10*sizeX,1/10*sizeY).transl(0.150000*sizeX,0.350000*sizeY,0)
defregion(87,region_87)
alpha.setregion(87,0.137973)
region_88:=rect(1/10*sizeX,1/10*sizeY).transl(0.250000*sizeX,0.350000*sizeY,0)
defregion(88,region_88)
alpha.setregion(88,0.177181)
region_89:=rect(1/10*sizeX,1/10*sizeY).transl(0.350000*sizeX,0.350000*sizeY,0)
defregion(89,region_89)
alpha.setregion(89,0.171128)
region_90:=rect(1/10*sizeX,1/10*sizeY).transl(0.450000*sizeX,0.350000*sizeY,0)
defregion(90,region_90)
alpha.setregion(90,0.135231)
region_91:=rect(1/10*sizeX,1/10*sizeY).transl(-0.450000*sizeX,0.450000*sizeY,0)
defregion(91,region_91)
alpha.setregion(91,0.137077)
region_92:=rect(1/10*sizeX,1/10*sizeY).transl(-0.350000*sizeX,0.450000*sizeY,0)
defregion(92,region_92)
alpha.setregion(92,0.144968)
region_93:=rect(1/10*sizeX,1/10*sizeY).transl(-0.250000*sizeX,0.450000*sizeY,0)
defregion(93,region_93)
alpha.setregion(93,0.149521)
region_94:=rect(1/10*sizeX,1/10*sizeY).transl(-0.150000*sizeX,0.450000*sizeY,0)
defregion(94,region_94)
alpha.setregion(94,0.128680)
region_95:=rect(1/10*sizeX,1/10*sizeY).transl(-0.050000*sizeX,0.450000*sizeY,0)
defregion(95,region_95)
alpha.setregion(95,0.163965)
region_96:=rect(1/10*sizeX,1/10*sizeY).transl(0.050000*sizeX,0.450000*sizeY,0)
defregion(96,region_96)
alpha.setregion(96,0.179803)
region_97:=rect(1/10*sizeX,1/10*sizeY).transl(0.150000*sizeX,0.450000*sizeY,0)
defregion(97,region_97)
alpha.setregion(97,0.165711)
region_98:=rect(1/10*sizeX,1/10*sizeY).transl(0.250000*sizeX,0.450000*sizeY,0)
defregion(98,region_98)
alpha.setregion(98,0.135192)
region_99:=rect(1/10*sizeX,1/10*sizeY).transl(0.350000*sizeX,0.450000*sizeY,0)
defregion(99,region_99)
alpha.setregion(99,0.148785)
region_100:=rect(1/10*sizeX,1/10*sizeY).transl(0.450000*sizeX,0.450000*sizeY,0)
defregion(100,region_100)
alpha.setregion(100,0.150493)

\\ place 4 terminals on each side of the subregion with equal distances to read system responses
dd := 8

\\ Because of the maximum region limits in Mumax3, we separate the mumax3 code into three parts, 
\\ in order to extract all I=400 system responses.
\\ This code includes the second one-third response terminals. 

defregioncell(102,18-dd,123,5)
defregioncell(103,53-dd,123,5)
defregioncell(104,88-dd,123,5)
defregioncell(105,123-dd,123,5)
defregioncell(106,158-dd,123,5)
defregioncell(107,193-dd,123,5)
defregioncell(108,228-dd,123,5)
defregioncell(109,263-dd,123,5)
defregioncell(110,298-dd,123,5)
defregioncell(111,333-dd,123,5)
defregioncell(112,18-dd,158,5)
defregioncell(113,53-dd,158,5)
defregioncell(114,88-dd,158,5)
defregioncell(115,123-dd,158,5)
defregioncell(116,158-dd,158,5)
defregioncell(117,193-dd,158,5)
defregioncell(118,228-dd,158,5)
defregioncell(119,263-dd,158,5)
defregioncell(120,298-dd,158,5)
defregioncell(121,333-dd,158,5)
defregioncell(122,18-dd,193,5)
defregioncell(123,53-dd,193,5)
defregioncell(124,88-dd,193,5)
defregioncell(125,123-dd,193,5)
defregioncell(126,158-dd,193,5)
defregioncell(127,193-dd,193,5)
defregioncell(128,228-dd,193,5)
defregioncell(129,263-dd,193,5)
defregioncell(130,298-dd,193,5)
defregioncell(131,333-dd,193,5)
defregioncell(132,18+dd,123,5)
defregioncell(133,53+dd,123,5)
defregioncell(134,88+dd,123,5)
defregioncell(135,123+dd,123,5)
defregioncell(136,158+dd,123,5)
defregioncell(137,193+dd,123,5)
defregioncell(138,228+dd,123,5)
defregioncell(139,263+dd,123,5)
defregioncell(140,298+dd,123,5)
defregioncell(141,333+dd,123,5)
defregioncell(142,18+dd,158,5)
defregioncell(143,53+dd,158,5)
defregioncell(144,88+dd,158,5)
defregioncell(145,123+dd,158,5)
defregioncell(146,158+dd,158,5)
defregioncell(147,193+dd,158,5)
defregioncell(148,228+dd,158,5)
defregioncell(149,263+dd,158,5)
defregioncell(150,298+dd,158,5)
defregioncell(151,333+dd,158,5)
defregioncell(152,18+dd,193,5)
defregioncell(153,53+dd,193,5)
defregioncell(154,88+dd,193,5)
defregioncell(155,123+dd,193,5)
defregioncell(156,158+dd,193,5)
defregioncell(157,193+dd,193,5)
defregioncell(158,228+dd,193,5)
defregioncell(159,263+dd,193,5)
defregioncell(160,298+dd,193,5)
defregioncell(161,333+dd,193,5)
defregioncell(162,18,123-dd,5)
defregioncell(163,53,123-dd,5)
defregioncell(164,88,123-dd,5)
defregioncell(165,123,123-dd,5)
defregioncell(166,158,123-dd,5)
defregioncell(167,193,123-dd,5)
defregioncell(168,228,123-dd,5)
defregioncell(169,263,123-dd,5)
defregioncell(170,298,123-dd,5)
defregioncell(171,333,123-dd,5)
defregioncell(172,18,158-dd,5)
defregioncell(173,53,158-dd,5)
defregioncell(174,88,158-dd,5)
defregioncell(175,123,158-dd,5)
defregioncell(176,158,158-dd,5)
defregioncell(177,193,158-dd,5)
defregioncell(178,228,158-dd,5)
defregioncell(179,263,158-dd,5)
defregioncell(180,298,158-dd,5)
defregioncell(181,333,158-dd,5)
defregioncell(182,18,193-dd,5)
defregioncell(183,53,193-dd,5)
defregioncell(184,88,193-dd,5)
defregioncell(185,123,193-dd,5)
defregioncell(186,158,193-dd,5)
defregioncell(187,193,193-dd,5)
defregioncell(188,228,193-dd,5)
defregioncell(189,263,193-dd,5)
defregioncell(190,298,193-dd,5)
defregioncell(191,333,193-dd,5)
defregioncell(192,18,123+dd,5)
defregioncell(193,53,123+dd,5)
defregioncell(194,88,123+dd,5)
defregioncell(195,123,123+dd,5)
defregioncell(196,158,123+dd,5)
defregioncell(197,193,123+dd,5)
defregioncell(198,228,123+dd,5)
defregioncell(199,263,123+dd,5)
defregioncell(200,298,123+dd,5)
defregioncell(201,333,123+dd,5)
defregioncell(202,18,158+dd,5)
defregioncell(203,53,158+dd,5)
defregioncell(204,88,158+dd,5)
defregioncell(205,123,158+dd,5)
defregioncell(206,158,158+dd,5)
defregioncell(207,193,158+dd,5)
defregioncell(208,228,158+dd,5)
defregioncell(209,263,158+dd,5)
defregioncell(210,298,158+dd,5)
defregioncell(211,333,158+dd,5)
defregioncell(212,18,193+dd,5)
defregioncell(213,53,193+dd,5)
defregioncell(214,88,193+dd,5)
defregioncell(215,123,193+dd,5)
defregioncell(216,158,193+dd,5)
defregioncell(217,193,193+dd,5)
defregioncell(218,228,193+dd,5)
defregioncell(219,263,193+dd,5)
defregioncell(220,298,193+dd,5)
defregioncell(221,333,193+dd,5)
defregioncell(222,18-dd,228,5)
defregioncell(223,53-dd,228,5)
defregioncell(224,88-dd,228,5)
defregioncell(225,123-dd,228,5)
defregioncell(226,158-dd,228,5)
defregioncell(227,18+dd,228,5)
defregioncell(228,53+dd,228,5)
defregioncell(229,88+dd,228,5)
defregioncell(230,123+dd,228,5)
defregioncell(231,158+dd,228,5)
defregioncell(232,18,228-dd,5)
defregioncell(233,53,228-dd,5)
defregioncell(234,88,228-dd,5)
defregioncell(235,123,228-dd,5)
defregioncell(236,158,228-dd,5)
defregioncell(237,18,228+dd,5)
defregioncell(238,53,228+dd,5)
defregioncell(239,88,228+dd,5)
defregioncell(240,123,228+dd,5)
defregioncell(241,158,228+dd,5)
tableadd(m.region(102))
tableadd(m.region(103))
tableadd(m.region(104))
tableadd(m.region(105))
tableadd(m.region(106))
tableadd(m.region(107))
tableadd(m.region(108))
tableadd(m.region(109))
tableadd(m.region(110))
tableadd(m.region(111))
tableadd(m.region(112))
tableadd(m.region(113))
tableadd(m.region(114))
tableadd(m.region(115))
tableadd(m.region(116))
tableadd(m.region(117))
tableadd(m.region(118))
tableadd(m.region(119))
tableadd(m.region(120))
tableadd(m.region(121))
tableadd(m.region(122))
tableadd(m.region(123))
tableadd(m.region(124))
tableadd(m.region(125))
tableadd(m.region(126))
tableadd(m.region(127))
tableadd(m.region(128))
tableadd(m.region(129))
tableadd(m.region(130))
tableadd(m.region(131))
tableadd(m.region(132))
tableadd(m.region(133))
tableadd(m.region(134))
tableadd(m.region(135))
tableadd(m.region(136))
tableadd(m.region(137))
tableadd(m.region(138))
tableadd(m.region(139))
tableadd(m.region(140))
tableadd(m.region(141))
tableadd(m.region(142))
tableadd(m.region(143))
tableadd(m.region(144))
tableadd(m.region(145))
tableadd(m.region(146))
tableadd(m.region(147))
tableadd(m.region(148))
tableadd(m.region(149))
tableadd(m.region(150))
tableadd(m.region(151))
tableadd(m.region(152))
tableadd(m.region(153))
tableadd(m.region(154))
tableadd(m.region(155))
tableadd(m.region(156))
tableadd(m.region(157))
tableadd(m.region(158))
tableadd(m.region(159))
tableadd(m.region(160))
tableadd(m.region(161))
tableadd(m.region(162))
tableadd(m.region(163))
tableadd(m.region(164))
tableadd(m.region(165))
tableadd(m.region(166))
tableadd(m.region(167))
tableadd(m.region(168))
tableadd(m.region(169))
tableadd(m.region(170))
tableadd(m.region(171))
tableadd(m.region(172))
tableadd(m.region(173))
tableadd(m.region(174))
tableadd(m.region(175))
tableadd(m.region(176))
tableadd(m.region(177))
tableadd(m.region(178))
tableadd(m.region(179))
tableadd(m.region(180))
tableadd(m.region(181))
tableadd(m.region(182))
tableadd(m.region(183))
tableadd(m.region(184))
tableadd(m.region(185))
tableadd(m.region(186))
tableadd(m.region(187))
tableadd(m.region(188))
tableadd(m.region(189))
tableadd(m.region(190))
tableadd(m.region(191))
tableadd(m.region(192))
tableadd(m.region(193))
tableadd(m.region(194))
tableadd(m.region(195))
tableadd(m.region(196))
tableadd(m.region(197))
tableadd(m.region(198))
tableadd(m.region(199))
tableadd(m.region(200))
tableadd(m.region(201))
tableadd(m.region(202))
tableadd(m.region(203))
tableadd(m.region(204))
tableadd(m.region(205))
tableadd(m.region(206))
tableadd(m.region(207))
tableadd(m.region(208))
tableadd(m.region(209))
tableadd(m.region(210))
tableadd(m.region(211))
tableadd(m.region(212))
tableadd(m.region(213))
tableadd(m.region(214))
tableadd(m.region(215))
tableadd(m.region(216))
tableadd(m.region(217))
tableadd(m.region(218))
tableadd(m.region(219))
tableadd(m.region(220))
tableadd(m.region(221))
tableadd(m.region(222))
tableadd(m.region(223))
tableadd(m.region(224))
tableadd(m.region(225))
tableadd(m.region(226))
tableadd(m.region(227))
tableadd(m.region(228))
tableadd(m.region(229))
tableadd(m.region(230))
tableadd(m.region(231))
tableadd(m.region(232))
tableadd(m.region(233))
tableadd(m.region(234))
tableadd(m.region(235))
tableadd(m.region(236))
tableadd(m.region(237))
tableadd(m.region(238))
tableadd(m.region(239))
tableadd(m.region(240))
tableadd(m.region(241))

MaxDt=1e-12
t0 := 100e-9



tableaddvar(B0,"B0","T")

// set the magnitude of the input magnetic field
B_in:=0.4
B_ext = vector(0, 0, 0)


// Hereafter shows the input data interpolated and sampled at every 0.01 ns.
t = 0.000000e-9
B_ext = vector(0, 0, B_in*(-135860325325.331100*t+(0.983127)))
tableautosave(1e-11)
run(0.01e-9)

t = 0.010000e-9
B_ext = vector(0, 0, B_in*(-83966298773.672791*t+(0.464187)))
tableautosave(1e-11)
run(0.01e-9)

t = 0.020000e-9
B_ext = vector(0, 0, B_in*(83966298773.672745*t+(-2.894465)))
tableautosave(1e-11)
run(0.01e-9)

t = 0.030000e-9
B_ext = vector(0, 0, B_in*(135860325325.331146*t+(-4.451286)))
tableautosave(1e-11)
run(0.01e-9)

t = 0.040000e-9
B_ext = vector(0, 0, B_in*(-14044207849.990442*t+(1.544896)))
tableautosave(1e-11)
run(0.01e-9)

t = 0.050000e-9
B_ext = vector(0, 0, B_in*(-116451707421.712387*t+(6.665271)))
tableautosave(1e-11)
run(0.01e-9)

t = 0.060000e-9
B_ext = vector(0, 0, B_in*(-71971113234.576660*t+(3.996435)))
tableautosave(1e-11)
run(0.01e-9)

t = 0.070000e-9
B_ext = vector(0, 0, B_in*(71971113234.576599*t+(-6.079521)))
tableautosave(1e-11)
run(0.01e-9)

t = 0.080000e-9
B_ext = vector(0, 0, B_in*(116451707421.712433*t+(-9.637968)))
tableautosave(1e-11)
run(0.01e-9)

t = 0.090000e-9
B_ext = vector(0, 0, B_in*(0.000067*t+(0.842685)))
tableautosave(1e-11)
run(0.01e-9)

t = 0.100000e-9
B_ext = vector(0, 0, B_in*(-116451707421.712402*t+(12.487856)))
tableautosave(1e-11)
run(0.01e-9)

t = 0.110000e-9
B_ext = vector(0, 0, B_in*(-71971113234.576721*t+(7.594991)))
tableautosave(1e-11)
run(0.01e-9)

t = 0.120000e-9
B_ext = vector(0, 0, B_in*(71971113234.576599*t+(-9.678077)))
tableautosave(1e-11)
run(0.01e-9)

t = 0.130000e-9
B_ext = vector(0, 0, B_in*(116451707421.712448*t+(-15.460554)))
tableautosave(1e-11)
run(0.01e-9)

t = 0.140000e-9
B_ext = vector(0, 0, B_in*(0.000078*t+(0.842685)))
tableautosave(1e-11)
run(0.01e-9)

t = 0.150000e-9
B_ext = vector(0, 0, B_in*(-116451707421.712372*t+(18.310441)))
tableautosave(1e-11)
run(0.01e-9)

t = 0.160000e-9
B_ext = vector(0, 0, B_in*(-71971113234.576752*t+(11.193546)))
tableautosave(1e-11)
run(0.01e-9)

t = 0.170000e-9
B_ext = vector(0, 0, B_in*(71971113234.576584*t+(-13.276632)))
tableautosave(1e-11)
run(0.01e-9)

t = 0.180000e-9
B_ext = vector(0, 0, B_in*(116451707421.712402*t+(-21.283139)))
tableautosave(1e-11)
run(0.01e-9)

t = 0.190000e-9
B_ext = vector(0, 0, B_in*(14044207849.990587*t+(-1.825714)))
tableautosave(1e-11)
run(0.01e-9)

t = 0.200000e-9
B_ext = vector(0, 0, B_in*(-135860325325.331070*t+(28.155192)))
tableautosave(1e-11)
run(0.01e-9)

t = 0.210000e-9
B_ext = vector(0, 0, B_in*(-83966298773.672897*t+(17.257447)))
tableautosave(1e-11)
run(0.01e-9)

t = 0.220000e-9
B_ext = vector(0, 0, B_in*(83966298773.672623*t+(-19.687725)))
tableautosave(1e-11)
run(0.01e-9)

t = 0.230000e-9
B_ext = vector(0, 0, B_in*(135860325325.331177*t+(-31.623351)))
tableautosave(1e-11)
run(0.01e-9)

t = 0.240000e-9
B_ext = vector(0, 0, B_in*(14044207849.990686*t+(-2.387483)))
tableautosave(1e-11)
run(0.01e-9)

t = 0.250000e-9
B_ext = vector(0, 0, B_in*(-155268943228.949829*t+(39.940805)))
tableautosave(1e-11)
run(0.01e-9)

t = 0.260000e-9
B_ext = vector(0, 0, B_in*(-95961484312.769043*t+(24.520866)))
tableautosave(1e-11)
run(0.01e-9)

t = 0.270000e-9
B_ext = vector(0, 0, B_in*(95961484312.768677*t+(-27.298336)))
tableautosave(1e-11)
run(0.01e-9)

t = 0.280000e-9
B_ext = vector(0, 0, B_in*(155268943228.949951*t+(-43.904424)))
tableautosave(1e-11)
run(0.01e-9)

t = 0.290000e-9
B_ext = vector(0, 0, B_in*(14044207849.990721*t+(-2.949251)))
tableautosave(1e-11)
run(0.01e-9)

t = 0.300000e-9
B_ext = vector(0, 0, B_in*(-174677561132.568512*t+(53.667280)))
tableautosave(1e-11)
run(0.01e-9)

t = 0.310000e-9
B_ext = vector(0, 0, B_in*(-107956669851.865173*t+(32.983804)))
tableautosave(1e-11)
run(0.01e-9)

t = 0.320000e-9
B_ext = vector(0, 0, B_in*(107956669851.864685*t+(-36.108465)))
tableautosave(1e-11)
run(0.01e-9)

t = 0.330000e-9
B_ext = vector(0, 0, B_in*(174677561132.569611*t+(-58.126359)))
tableautosave(1e-11)
run(0.01e-9)

t = 0.340000e-9
B_ext = vector(0, 0, B_in*(-14044207849.991898*t+(6.039042)))
tableautosave(1e-11)
run(0.01e-9)

t = 0.350000e-9
B_ext = vector(0, 0, B_in*(-155268943228.948944*t+(55.467700)))
tableautosave(1e-11)
run(0.01e-9)

t = 0.360000e-9
B_ext = vector(0, 0, B_in*(-95961484312.769104*t+(34.117014)))
tableautosave(1e-11)
run(0.01e-9)

t = 0.370000e-9
B_ext = vector(0, 0, B_in*(95961484312.768600*t+(-36.894484)))
tableautosave(1e-11)
run(0.01e-9)

t = 0.380000e-9
B_ext = vector(0, 0, B_in*(155268943228.950043*t+(-59.431318)))
tableautosave(1e-11)
run(0.01e-9)

t = 0.390000e-9
B_ext = vector(0, 0, B_in*(0.000555*t+(1.123569)))
tableautosave(1e-11)
run(0.01e-9)

t = 0.400000e-9
B_ext = vector(0, 0, B_in*(-155268943228.950317*t+(63.231147)))
tableautosave(1e-11)
run(0.01e-9)

t = 0.410000e-9
B_ext = vector(0, 0, B_in*(-95961484312.768860*t+(38.915089)))
tableautosave(1e-11)
run(0.01e-9)

t = 0.420000e-9
B_ext = vector(0, 0, B_in*(95961484312.768585*t+(-41.692558)))
tableautosave(1e-11)
run(0.01e-9)

t = 0.430000e-9
B_ext = vector(0, 0, B_in*(155268943228.949982*t+(-67.194766)))
tableautosave(1e-11)
run(0.01e-9)

t = 0.440000e-9
B_ext = vector(0, 0, B_in*(0.000355*t+(1.123569)))
tableautosave(1e-11)
run(0.01e-9)

t = 0.450000e-9
B_ext = vector(0, 0, B_in*(-155268943228.950439*t+(70.994594)))
tableautosave(1e-11)
run(0.01e-9)

t = 0.460000e-9
B_ext = vector(0, 0, B_in*(-95961484312.767792*t+(43.713163)))
tableautosave(1e-11)
run(0.01e-9)

t = 0.470000e-9
B_ext = vector(0, 0, B_in*(95961484312.767853*t+(-46.490633)))
tableautosave(1e-11)
run(0.01e-9)

t = 0.480000e-9
B_ext = vector(0, 0, B_in*(155268943228.950073*t+(-74.958213)))
tableautosave(1e-11)
run(0.01e-9)

t = 0.490000e-9
B_ext = vector(0, 0, B_in*(-14044207849.989943*t+(8.005231)))
tableautosave(1e-11)
run(0.01e-9)

t = 0.500000e-9
B_ext = vector(0, 0, B_in*(-135860325325.331467*t+(68.913290)))
tableautosave(1e-11)
run(0.01e-9)

t = 0.510000e-9
B_ext = vector(0, 0, B_in*(-83966298773.673431*t+(42.447336)))
tableautosave(1e-11)
run(0.01e-9)

t = 0.520000e-9
B_ext = vector(0, 0, B_in*(83966298773.673660*t+(-44.877614)))
tableautosave(1e-11)
run(0.01e-9)

t = 0.530000e-9
B_ext = vector(0, 0, B_in*(135860325325.331467*t+(-72.381448)))
tableautosave(1e-11)
run(0.01e-9)

t = 0.540000e-9
B_ext = vector(0, 0, B_in*(14044207849.989256*t+(-6.600745)))
tableautosave(1e-11)
run(0.01e-9)
